#defining enviroment
units metal
dimension 3
boundary f f p
atom_style atomic
#------------------------EQUILIBRIZATION-----------------------------------------
#atom data
read_data tersoff.data

#potential model
pair_style tersoff
pair_coeff * * BNC.tersoff C
mass 1 12.01

#define simulation
timestep 0.001

#relaxing system
velocity all create 300 4928459
#100 because it is timesteps not timeframes
fix 1 all npt temp 300 300 0.1 z 0 0 1

#output
thermo 	300
thermo_style custom step lx ly lz pzz temp

shell mkdir dump

dump 1 all custom 5000  ./dump/equil* id x y z 
run 20000
write_data equilibizeja.LAMMPS
#-------------------STRESS STRAIN-------------------------------------------------
#variables
variable l0 equal $(lz)
variable strain equal (lz-v_l0)/v_l0
fix extra all print 100 "lz un strain = $(lz) $(v_strain)" file strainandtest.txt

#define sim
reset_timestep 0

#removing previous fixes
unfix 1
undump 1
fix 1 all nvt temp 300 300 0.1

#scale varaible defining boz size change in the end of run 30-40% 20runtime 0.001 timestep
fix 2 all deform 1 z scale 1.3 remap x
dump 1 all custom 300  ./dump/stress.* id x y z
#thermo 	200
#thermo_style	custom step v_strain v_lz temp
run 50000

write_data stressizeja.LAMMPS





